NAME          COPTPROB
OBJSENSE
  MIN
ROWS
 N  __OBJ___
 L  C72     
 L  C120    
 L  C419    
 L  C755    
 L  C1167   
 L  C1176   
COLUMNS
    MARKER    'MARKER'                 'INTORG'
    x76       __OBJ___  -1
    x76       C120      1
    x76       C755      1
    x105      __OBJ___  -1
    x105      C72       1
    x105      C419      1
    x132      __OBJ___  -1
    x132      C120      1
    x132      C1176     1
    x347      __OBJ___  -1
    x347      C72       1
    x347      C1167     1
    x348      __OBJ___  -1
    x348      C419      1
    x348      C755      1
    x592      __OBJ___  -1
    x592      C1167     1
    x592      C1176     1
    MARKER    'MARKER'                 'INTEND'
RHS
    RHS       __OBJ___  342
    RHS       C72       1
    RHS       C120      1
    RHS       C419      1
    RHS       C755      1
    RHS       C1167     1
    RHS       C1176     1
BOUNDS
 UP BOUND     x76       1
 UP BOUND     x105      1
 UP BOUND     x132      1
 UP BOUND     x347      1
 UP BOUND     x348      1
 UP BOUND     x592      1
ENDATA
